20200121 45400.00 23500.00
20180423 33100.00 28400.00
20170704 33058.69 16609.62
20170317 33058.69 15161.45
20170103 33058.69 12936.02
20161019 33058.69 12936.02
20160718 30000.00 12704.83
20160419 30000.00 12681.58
20160411 30000.00 12912.92
20160125 10000.00 4303.15
